SCIP Status        : solving was interrupted [time limit reached]
Total Time         :    3600.00
  solving          :    3600.00
  presolving       :       0.23 (included in solving)
  reading          :       0.00
  copying          :       0.74 (47 #copies) (minimal 0.00, maximal 0.03, average 0.02)
Original Problem   :
  Problem name     : bbbenchmark/g05_60.9.cut
  Variables        : 61 (60 binary, 0 integer, 0 implicit integer, 1 continuous)
  Constraints      : 1 initial, 1 maximal
  Objective        : minimize, 1 non-zeros (abs.min = 1, abs.max = 1)
Presolved Problem  :
  Problem name     : t_bbbenchmark/g05_60.9.cut
  Variables        : 946 (60 binary, 0 integer, 885 implicit integer, 1 continuous)
  Constraints      : 886 initial, 4882 maximal
  Objective        : minimize, 1 non-zeros (abs.min = 1, abs.max = 1)
  Nonzeros         : 3601 constraint, 122 clique table
Presolvers         :   ExecTime  SetupTime  Calls  FixedVars   AggrVars   ChgTypes  ChgBounds   AddHoles    DelCons    AddCons   ChgSides   ChgCoefs
  boundshift       :       0.00       0.00      0          0          0          0          0          0          0          0          0          0
  convertinttobin  :       0.00       0.00      0          0          0          0          0          0          0          0          0          0
  domcol           :       0.00       0.00      1          0          0          0          0          0          0          0          0          0
  dualagg          :       0.00       0.00      0          0          0          0          0          0          0          0          0          0
  dualcomp         :       0.00       0.00      1          0          0          0          0          0          0          0          0          0
  dualinfer        :       0.00       0.00      0          0          0          0          0          0          0          0          0          0
  dualsparsify     :       0.00       0.00      1          0          0          0          0          0          0          0          0          0
  gateextraction   :       0.00       0.00      0          0          0          0          0          0          0          0          0          0
  implics          :       0.00       0.00      2          0          0          0          0          0          0          0          0          0
  inttobinary      :       0.00       0.00      0          0          0          0          0          0          0          0          0          0
  qpkktref         :       0.00       0.00      0          0          0          0          0          0          0          0          0          0
  redvub           :       0.00       0.00      0          0          0          0          0          0          0          0          0          0
  sparsify         :       0.00       0.00      1          0          0          0          0          0          0          0          0          0
  stuffing         :       0.00       0.00      0          0          0          0          0          0          0          0          0          0
  trivial          :       0.00       0.00      4          0          0          0          0          0          0          0          0          0
  tworowbnd        :       0.00       0.00      0          0          0          0          0          0          0          0          0          0
  dualfix          :       0.00       0.00      4          0          0          0          0          0          0          0          0          0
  genvbounds       :       0.00       0.00      0          0          0          0          0          0          0          0          0          0
  probing          :       0.12       0.00      1          0          0          0          0          0          0          0          0          0
  pseudoobj        :       0.00       0.00      1          0          0          0          1          0          0          0          0          0
  symmetry         :       0.00       0.00      0          0          0          0          0          0          0          0          0          0
  vbounds          :       0.00       0.00      1          0          0          0          0          0          0          0          0          0
  and              :       0.00       0.00      2          0          0          0          0          0          0          0          0          0
  linear           :       0.01       0.00      2          0          0          0          0          0          0          0          0          0
  logicor          :       0.00       0.00      0          0          0          0          0          0          0          0          0          0
  nonlinear        :       0.09       0.00      5          0          0          0          1          0          0        885          0          0
  benders          :       0.00       0.00      0          0          0          0          0          0          0          0          0          0
  components       :       0.00       0.00      1          0          0          0          0          0          0          0          0          0
  root node        :          -          -      -          0          -          -         48          -          -          -          -          -
Constraints        :     Number  MaxNumber  #Separate #Propagate    #EnfoLP    #EnfoRelax  #EnfoPS    #Check   #ResProp    Cutoffs    DomReds       Cuts    Applied      Conss   Children
  benderslp        :          0          0          0          0      74467          0          0       4719          0          0          0          0          0          0          0
  integral         :          0          0          0          0      74467          0          0       4719          0          0      12796          0          0       8015     141864
  and              :        885        885      81327     487371         11          0          0         29     100938         86    2627901       1560       1341          0          0
  linear           :          1+         5         96     487285         11          0          0         27          0          0          1          0          0          0          0
  logicor          :          0+      3995          0     122684          0          0          0          0       3881        881        312          0          0          0          0
  benders          :          0          0          0          0         11          0          0         30          0          0          0          0          0          0          0
  countsols        :          0          0          0          0         11          0          0         30          0          0          0          0          0          0          0
  components       :          0          0          0          0          0          0          0          0          0          0          0          0          0          0          0
Constraint Timings :  TotalTime  SetupTime   Separate  Propagate     EnfoLP     EnfoPS     EnfoRelax   Check    ResProp    SB-Prop
  benderslp        :       0.13       0.00       0.00       0.00       0.13       0.00       0.00       0.00       0.00       0.00
  integral         :      71.35       0.00       0.00       0.00      71.35       0.00       0.00       0.00       0.00       0.00
  and              :      46.75       0.00      26.51      18.91       0.00       0.00       0.00       0.00       0.17       1.16
  linear           :       0.60       0.00       0.00       0.59       0.00       0.00       0.00       0.00       0.00       0.01
  logicor          :       7.73       0.00       0.00       7.65       0.00       0.00       0.00       0.00       0.00       0.08
  benders          :       0.00       0.00       0.00       0.00       0.00       0.00       0.00       0.00       0.00       0.00
  countsols        :       0.00       0.00       0.00       0.00       0.00       0.00       0.00       0.00       0.00       0.00
  components       :       0.18       0.00       0.00       0.17       0.00       0.00       0.00       0.00       0.00       0.01
Propagators        : #Propagate   #ResProp    Cutoffs    DomReds
  dualfix          :          4          0          0          0
  genvbounds       :          0          0          0          0
  nlobbt           :          0          0          0          0
  obbt             :          0          0          0          0
  probing          :          0          0          0          0
  pseudoobj        :     391767          0          0         50
  redcost          :     180157          0          0     372023
  rootredcost      :         20          0          0          0
  symmetry         :          0          0          0          0
  vbounds          :      44256          0          0          0
Propagator Timings :  TotalTime  SetupTime   Presolve  Propagate    ResProp    SB-Prop
  dualfix          :       0.00       0.00       0.00       0.00       0.00       0.00
  genvbounds       :       0.34       0.00       0.00       0.34       0.00       0.00
  nlobbt           :       0.00       0.00       0.00       0.00       0.00       0.00
  obbt             :       0.00       0.00       0.00       0.00       0.00       0.00
  probing          :       0.12       0.00       0.12       0.00       0.00       0.00
  pseudoobj        :       0.70       0.00       0.00       0.69       0.00       0.01
  redcost          :       6.42       0.00       0.00       6.42       0.00       0.00
  rootredcost      :       0.61       0.00       0.00       0.56       0.00       0.05
  symmetry         :       0.25       0.00       0.00       0.25       0.00       0.00
  vbounds          :       0.37       0.00       0.00       0.35       0.00       0.02
Conflict Analysis  :       Time      Calls    Success    DomReds  Conflicts   Literals    Reconvs ReconvLits   Dualrays   Nonzeros   LP Iters   (pool size: [10000,10000])
  propagation      :       0.02        967        482          -        536       23.9          0        0.0          -          -          -
  infeasible LP    :       0.00          0          0          -          0        0.0          0        0.0          5       26.2          0
  bound exceed. LP :      15.94      13455      10376          -      51990       30.0         25       21.0          0        0.0      58753
  strong branching :       0.00          0          0          -          0        0.0          0        0.0          -          -          0
  pseudo solution  :       0.00          0          0          -          0        0.0          0        0.0          -          -          -
  applied globally :       0.20          -          -          0      21562       29.9          -          -          5          -          -
  applied locally  :          -          -          -          0          0        0.0          -          -          0          -          -
Separators         :   ExecTime  SetupTime      Calls  RootCalls    Cutoffs    DomReds  FoundCuts ViaPoolAdd  DirectAdd    Applied ViaPoolApp  DirectApp      Conss
  cut pool         :       2.54          -      13411        125          -          -      19926     476775          -          -          -          -          -    (maximal pool size:       1474)
  aggregation      :      23.74       0.00       4281         96          0          0         20         13          0         10         10          0          0
  > cmir           :          -          -          -          -          -          -          -         13          0         10         10          0          -
  > flowcover      :          -          -          -          -          -          -          -          0          0          0          0          0          -
  > knapsackcover  :          -          -          -          -          -          -          -          0          0          0          0          0          -
  cgmip            :       0.00       0.00          0          0          0          0          0          0          0          0          0          0          0
  clique           :       0.00       0.00         96         96          0          0          0          0          0          0          0          0          0
  closecuts        :       0.00       0.00          0          0          0          0          0          0          0          0          0          0          0
  convexproj       :       0.00       0.00          0          0          0          0          0          0          0          0          0          0          0
  disjunctive      :       0.00       0.00          0          0          0          0          0          0          0          0          0          0          0
  eccuts           :       0.00       0.00          0          0          0          0          0          0          0          0          0          0          0
  gauge            :       0.00       0.00          0          0          0          0          0          0          0          0          0          0          0
  gomory           :       0.00       0.00          0          0          0          0          0          0          0          0          0          0          0
  > gomorymi       :          -          -          -          -          -          -          -          0          0          0          0          0          -
  > strongcg       :          -          -          -          -          -          -          -          0          0          0          0          0          -
  impliedbounds    :       0.12       0.00       4281         96          0          0         36          0          0          0          0          0          0
  interlattice     :       0.12       0.00         60         60          0          0         60          0         60         59          0         59          0
  interminor       :       0.00       0.00          0          0          0          0          0          0          0          0          0          0          0
  intersub         :       0.00       0.00          0          0          0          0          0          0          0          0          0          0          0
  intobj           :       0.00       0.00          0          0          0          0          0          0          0          0          0          0          0
  mcf              :       0.00       0.00          1          1          0          0          0          0          0          0          0          0          0
  minor            :       0.00       0.00          0          0          0          0          0          0          0          0          0          0          0
  mixing           :       0.00       0.00       4281         96          0          0          0          0          0          0          0          0          0
  oddcycle         :       0.00       0.00          0          0          0          0          0          0          0          0          0          0          0
  rapidlearning    :       0.00       0.00          0          0          0          0          0          0          0          0          0          0          0
  rlt              :       0.00       0.00         10         10          0          0          0          0          0          0          0          0          0
  zerohalf         :      23.33       0.00       3506         20          0          0      19870     476762          0      64951      64951          0          0
Cutselectors       :   ExecTime  SetupTime      Calls  RootCalls   Selected     Forced   Filtered  RootSelec   RootForc   RootFilt 
  hybrid           :       0.23       0.00       8179         94      66361          0     412034        242          0         13
Pricers            :   ExecTime  SetupTime      Calls       Vars
  problem variables:       0.00          -          0          0
Branching Rules    :   ExecTime  SetupTime   BranchLP  BranchExt   BranchPS    Cutoffs    DomReds       Cuts      Conss   Children
  allfullstrong    :       0.00       0.00          0          0          0          0          0          0          0          0
  cloud            :       0.00       0.00          0          0          0          0          0          0          0          0
  distribution     :       0.00       0.00          0          0          0          0          0          0          0          0
  fullstrong       :       0.00       0.00          0          0          0          0          0          0          0          0
  inference        :       0.00       0.00          0          0          0          0          0          0          0          0
  leastinf         :       0.00       0.00          0          0          0          0          0          0          0          0
  lookahead        :       0.00       0.00          0          0          0          0          0          0          0          0
  mostinf          :       0.00       0.00          0          0          0          0          0          0          0          0
  multaggr         :       0.00       0.00          0          0          0          0          0          0          0          0
  nodereopt        :       0.00       0.00          0          0          0          0          0          0          0          0
  pscost           :       0.00       0.00          0          0          0          0          0          0          0          0
  random           :       0.00       0.00          0          0          0          0          0          0          0          0
  relpscost        :      71.06       0.00      74456          0          0          0      12796          0       8074     141864
  vanillafullstrong:       0.00       0.00          0          0          0          0          0          0          0          0
Primal Heuristics  :   ExecTime  SetupTime      Calls      Found       Best
  LP solutions     :       0.00          -          -         11         11
  relax solutions  :       0.00          -          -          0          0
  pseudo solutions :       0.00          -          -          0          0
  strong branching :       0.03          -          -          0          0
  actconsdiving    :       0.00       0.00          0          0          0
  adaptivediving   :       2.65       0.00         95          0          0
  alns             :       1.99       0.00         26          4          4
  bound            :       0.00       0.00          0          0          0
  clique           :       0.00       0.00          1          0          0
  coefdiving       :       0.00       0.00          0          0          0
  completesol      :       0.00       0.00          0          0          0
  conflictdiving   :       7.12       0.00        324          0          0
  crossover        :       0.03       0.00          1          1          1
  dins             :       0.00       0.00          0          0          0
  distributiondivin:      19.40       0.00        324          1          1
  dps              :       0.00       0.00          0          0          0
  dualval          :       0.00       0.00          0          0          0
  farkasdiving     :       0.02       0.00          0          0          0
  feaspump         :       0.01       0.00          0          0          0
  fixandinfer      :       0.00       0.00          0          0          0
  fracdiving       :      10.77       0.00        324          0          0
  gins             :       0.04       0.00          0          0          0
  guideddiving     :      10.62       0.00        324          0          0
  indicator        :       0.14       0.00          0          0          0
  indicatordiving  :       0.00       0.00          0          0          0
  intdiving        :       0.00       0.00          0          0          0
  intshifting      :       0.09       0.00         24          0          0
  linesearchdiving :      10.19       0.00        324          0          0
  localbranching   :       0.00       0.00          0          0          0
  locks            :       0.01       0.00          1          0          0
  lpface           :       0.15       0.00          0          0          0
  mpec             :       1.58       0.00          1          0          0
  multistart       :       0.00       0.00          0          0          0
  mutation         :       0.00       0.00          0          0          0
  nlpdiving        :       3.99       0.00         10          0          0
  objpscostdiving  :      25.69       0.00         81          5          1
  octane           :       0.00       0.00          0          0          0
  ofins            :       0.13       0.00          0          0          0
  oneopt           :       0.13       0.00         30          0          0
  padm             :       0.00       0.00          0          0          0
  proximity        :       0.00       0.00          0          0          0
  pscostdiving     :      11.54       0.00        323          1          1
  randrounding     :       0.43       0.00       4685          0          0
  rens             :       0.00       0.00          0          0          0
  reoptsols        :       0.00       0.00          0          0          0
  repair           :       0.00       0.00          0          0          0
  rins             :       5.35       0.00         20          1          1
  rootsoldiving    :      11.32       0.00         35          2          0
  rounding         :       0.57       0.00       3855          0          0
  shiftandpropagate:       0.00       0.00          0          0          0
  shifting         :      21.41       0.00      10236          9          9
  simplerounding   :       0.06       0.00          0          0          0
  subnlp           :      71.86       0.00          0          0          0
  trivial          :       0.01       0.00          2          2          2
  trivialnegation  :       0.00       0.00          0          0          0
  trustregion      :       0.00       0.00          0          0          0
  trysol           :       0.11       0.00          0          0          0
  twoopt           :       0.00       0.00          0          0          0
  undercover       :       0.13       0.00          1          0          0
  vbounds          :       0.00       0.00          0          0          0
  veclendiving     :       5.42       0.00        324          0          0
  zeroobj          :       0.00       0.00          0          0          0
  zirounding       :       0.30       0.00       1000          0          0
  other solutions  :          -          -          -          0          -
Diving (single)    :      Calls      Nodes   LP Iters Backtracks  Conflicts   MinDepth   MaxDepth   AvgDepth  RoundSols  NLeafSols  MinSolDpt  MaxSolDpt  AvgSolDpt
  actconsdiving    :          0          -          -          -          -          -          -          -          -          -          -          -          -
  coefdiving       :          0          -          -          -          -          -          -          -          -          -          -          -          -
  conflictdiving   :        324       5719      60099        341       4459         20         46       31.7          0          -          -          -          -
  distributiondivin:        324       3980     125112        532       4038         20         38       25.4          0          1         31         31       31.0
  farkasdiving     :          0          -          -          -          -          -          -          -          -          -          -          -          -
  fracdiving       :        324      36071      98730        209       1388         27        259      125.4          0          -          -          -          -
  guideddiving     :        324      32806     100001        183       1346         33        243      115.5          0          -          -          -          -
  indicatordiving  :          0          -          -          -          -          -          -          -          -          -          -          -          -
  linesearchdiving :        324       8683      97746        395       5795         25         54       40.4          0          -          -          -          -
  pscostdiving     :        323       5608     117168        339       5533         21         47       31.3          0          1         47         47       47.0
  veclendiving     :        324       5880      35846        326       5408         21         48       32.0          0          -          -          -          -
Diving (adaptive)  :      Calls      Nodes   LP Iters Backtracks  Conflicts   MinDepth   MaxDepth   AvgDepth  RoundSols  NLeafSols  MinSolDpt  MaxSolDpt  AvgSolDpt
  actconsdiving    :         18        218       8700         37        223         20         30       24.7          0          -          -          -          -
  coefdiving       :         31        576       4650         31        585         28         39       31.5          0          -          -          -          -
  conflictdiving   :          0          -          -          -          -          -          -          -          -          -          -          -          -
  distributiondivin:          0          -          -          -          -          -          -          -          -          -          -          -          -
  farkasdiving     :          0          -          -          -          -          -          -          -          -          -          -          -          -
  fracdiving       :          7        746       1599          2         18         64        141      121.0          0          -          -          -          -
  guideddiving     :          4        418       1132          2         15         48        154      118.8          0          -          -          -          -
  indicatordiving  :          0          -          -          -          -          -          -          -          -          -          -          -          -
  linesearchdiving :         11        298       2397         10        170         34         47       41.5          0          -          -          -          -
  pscostdiving     :         11        204       4290         12        205         29         36       32.1          0          -          -          -          -
  veclendiving     :         13        225       1051         14        199         22         38       31.5          0          -          -          -          -
Neighborhoods      :      Calls  SetupTime  SolveTime SolveNodes       Sols       Best       Exp3  EpsGreedy        UCB TgtFixRate  Opt  Inf Node Stal  Sol  Usr Othr Actv
  rens             :          3       0.07       0.00          2          0          0    0.00000   -1.00000    0.53981      0.437    0    3    0    0    0    0    0    1
  rins             :          4       0.08       0.11         64          2          2    0.00000   -1.00000    0.54818      0.662    2    0    0    1    0    0    1    1
  mutation         :          4       0.11       0.22         82          1          1    0.00000   -1.00000    0.54094      0.522    1    2    0    1    0    0    0    1
  localbranching   :          3       0.08       0.09         42          0          0    0.00000   -1.00000    0.48703      0.437    0    3    0    0    0    0    0    1
  crossover        :          2       0.05       0.01          1          0          0    0.00000   -1.00000    0.55008      0.550    0    2    0    0    0    0    0    1
  proximity        :          4       0.11       0.55         94          1          1    0.00000   -1.00000    0.52425      0.522    1    2    0    1    0    0    0    1
  zeroobjective    :          3       0.08       0.09         40          0          0    0.00000   -1.00000    0.48967      0.437    0    3    0    0    0    0    0    1
  dins             :          3       0.07       0.07         40          0          0    0.00000   -1.00000    0.48967      0.437    0    3    0    0    0    0    0    1
  trustregion      :          0       0.00       0.00          0          0          0    0.00000   -1.00000    1.00000      0.900    0    0    0    0    0    0    0    0
Expressions        :   #IntEval  IntEvalTi   #RevProp  RevPropTi    DomReds    Cutoffs  #Estimate  EstimTime  Branching  #Simplify SimplifyTi Simplified
  pow              :          0       0.00          0       0.00          0          0          0       0.00          0          0       0.00          0
  prod             :       3540       0.01          0       0.00          0          0          0       0.00          0       2655       0.00          0
  sum              :          8       0.00          2       0.00          0          0          0       0.00          0          3       0.01          2
  var              :       3327       0.00          0       0.00          0          0          0       0.00          0       6378       0.00          0
  varidx           :          0       0.00          0       0.00          0          0          0       0.00          0          0       0.00          0
LP                 :       Time      Calls Iterations  Iter/call   Iter/sec  Time-0-It Calls-0-It    ItLimit
  primal LP        :     158.55      14119          0       0.00       0.00     158.48      14119
  dual LP          :    2920.61     171204   21222761     143.27    7266.55       7.47      23069
  lex dual LP      :       0.00          0          0       0.00          -
  barrier LP       :       0.00          0          0       0.00          -       0.00          0
  resolve instable :       0.00          0          0       0.00          -
  diving/probing LP:      90.11       8012     951651     118.78   10560.99
  strong branching :      44.42       8120     493271      60.75   11104.71          -          -         77
    (at root node) :          -         20       5195     259.75          -
  conflict analysis:       8.13       5954      58753       9.87    7226.69
NLP relaxation     :
  solve time       :       3.98 (10 calls)
  convexity        :  nonconvex (1 linear rows, 0 convex ineq., 0 nonconvex ineq., 885 nonlinear eq. or two-sided ineq.)
NLP Solvers        :  #Problems  ProblemTi    #Solves  SolveTime      #Iter  Time/Iter      #Okay #TimeLimit #IterLimit #LObjLimit #Interrupt  #NumError #EvalError  #OutOfMem #LicenseEr #OtherTerm   #GlobOpt    #LocOpt  #Feasible #LocInfeas #GlobInfea #Unbounded   #Unknown
  ipopt            :          2       4.93         13       5.62        345       0.02         13          0          0          0          0          0          0          0          0          0          0          0          0          3          0          0         10
B&B Tree           :
  number of runs   :          1
  nodes            :     136755 (70932 internal, 65823 leaves)
  feasible leaves  :         11
  infeas. leaves   :        323
  objective leaves :      65489
  nodes (total)    :     136755 (70932 internal, 65823 leaves)
  nodes left       :       5081
  max depth        :         35
  max depth (total):         35
  backtracks       :      35586 (26.0%)
  early backtracks :          0 (0.0%)
  nodes exc. ref.  :          0 (0.0%)
  delayed cutoffs  :          2
  repropagations   :       2821 (509 domain reductions, 0 cutoffs)
  avg switch length:       4.34
  switching time   :     183.47
Estim. Tree Size   :     395692
Estimation Tree    : 141865 nodes (136783 visited, 70932 internal, 65851 leaves, 5082 open), weight: 0.2801 completed 0.5538
Estimations        :      estim      value      trend resolution     smooth
  wbe              :     470160          -          -          -          -
  tree-profile     :         -1          -          -          -          -
  gap              :     468499    0.92275    0.00006        128     475688
  tree-weight      :     395693    0.28012    0.00070        128     395289
  leaf-frequency   :     411539    0.48142    0.00002        128     402064
  ssg              :     328910    0.28766   -0.00037        128     332635
  open-nodes       :     572500 5082.00000   -2.95065        128     546863
Root Node          :
  First LP value   : -1.00000000000000e+00
  First LP Iters   :        638 (21266.67 Iter/sec)
  First LP Time    :       0.03
  Final Dual Bound : -8.88551150954849e-01
  Final Root Iters :       2412
  Root LP Estimate : -5.44426754282937e-01
Solution           :
  Solutions found  :         37 (31 improvements)
  First Solution   : +1.00000000000000e+05   (in run 1, after 0 nodes, 0.02 seconds, depth 0, found by <trivial>)
  Gap First Sol.   :   infinite
  Gap Last Sol.    :      25.70 %
  Primal Bound     : -6.02259887005650e-01   (in run 1, after 11303 nodes, 169.91 seconds, depth 20, found by <alns>)
  Dual Bound       : -6.52680950858118e-01
  Gap              :       8.37 %
Integrals          :      Total       Avg%
  primal-dual      :   45329.36      12.59
  primal-ref       :          -          - (not evaluated)
  dual-ref         :          -          - (not evaluated)
